
Gurobi 9.5.2 (mac64[arm]) logging started Mon Apr 24 16:52:26 2023

Set parameter LogFile to value "Java/output/iterative_model/scenario_seed_3_nJob_40_machineCount_1/mip_increment_1/log.txt"
Gurobi Optimizer version 9.5.2 build v9.5.2rc0 (mac64[arm])
Thread count: 8 physical cores, 8 logical processors, using up to 8 threads
Optimize a model with 2231 rows, 13032 columns and 161570 nonzeros
Model fingerprint: 0xd3f5a743
Variable types: 0 continuous, 13032 integer (13032 binary)
Coefficient statistics:
  Matrix range     [1e+00, 4e+02]
  Objective range  [2e+01, 1e+07]
  Bounds range     [1e+00, 1e+00]
  RHS range        [1e+00, 1e+00]
Found heuristic solution: objective 4.257144e+07
Presolve removed 144 rows and 969 columns
Presolve time: 0.19s
Presolved: 2087 rows, 12063 columns, 147271 nonzeros
Variable types: 0 continuous, 12063 integer (12057 binary)
Found heuristic solution: objective 4.239024e+07

Root relaxation: objective 1.119906e+04, 3399 iterations, 0.17 seconds (0.42 work units)

    Nodes    |    Current Node    |     Objective Bounds      |     Work
 Expl Unexpl |  Obj  Depth IntInf | Incumbent    BestBd   Gap | It/Node Time

     0     0 11199.0650    0  107 4.2390e+07 11199.0650   100%     -    0s
H    0     0                    1.077483e+07 11199.0650   100%     -    0s
H    0     0                    6145184.0000 11199.0650   100%     -    0s
H    0     0                    2597408.0000 11199.0650   100%     -    0s
     0     0 11264.4289    0  184 2597408.00 11264.4289   100%     -    0s
H    0     0                    2597344.0000 11264.4289   100%     -    0s
H    0     0                    2597280.0000 11264.4289   100%     -    0s
H    0     0                    1948560.0000 11264.4289  99.4%     -    0s
H    0     0                    83552.000000 11290.2451  86.5%     -    0s
     0     0 11290.2451    0  181 83552.0000 11290.2451  86.5%     -    0s
     0     0 11325.0784    0  198 83552.0000 11325.0784  86.4%     -    1s
H    0     0                    76352.000000 11325.0784  85.2%     -    1s
     0     0 11325.0784    0  105 76352.0000 11325.0784  85.2%     -    1s
H    0     0                    76336.000000 11325.0784  85.2%     -    1s
     0     0 11325.0784    0  172 76336.0000 11325.0784  85.2%     -    1s
     0     0 11327.6301    0  189 76336.0000 11327.6301  85.2%     -    1s
     0     0 11329.9164    0  188 76336.0000 11329.9164  85.2%     -    1s
     0     0 11329.9829    0  189 76336.0000 11329.9829  85.2%     -    1s
     0     0 11352.2140    0  211 76336.0000 11352.2140  85.1%     -    1s
H    0     0                    76288.000000 11352.2140  85.1%     -    1s
     0     0 11361.4154    0  212 76288.0000 11361.4154  85.1%     -    1s
     0     0 11361.9925    0  214 76288.0000 11361.9925  85.1%     -    1s
     0     0 11362.0504    0  215 76288.0000 11362.0504  85.1%     -    1s
     0     0 11362.1521    0  212 76288.0000 11362.1521  85.1%     -    1s
     0     0 11362.3126    0  214 76288.0000 11362.3126  85.1%     -    1s
     0     0 11362.3229    0  216 76288.0000 11362.3229  85.1%     -    1s
H    0     0                    51520.000000 11362.3229  77.9%     -    2s
H    0     0                    51296.000000 11362.3229  77.8%     -    2s
H    0     0                    50624.000000 11362.3229  77.6%     -    2s
H    0     0                    21408.000000 11362.3229  46.9%     -    2s
     0     0 11508.6774    0  248 21408.0000 11508.6774  46.2%     -    2s
H    0     0                    21344.000000 11508.6774  46.1%     -    2s
H    0     0                    20992.000000 11508.6774  45.2%     -    2s
     0     0 11514.1612    0  277 20992.0000 11514.1612  45.1%     -    2s
H    0     0                    19744.000000 11514.1612  41.7%     -    2s
     0     0 11514.7578    0  274 19744.0000 11514.7578  41.7%     -    2s
     0     0 11514.7770    0  269 19744.0000 11514.7770  41.7%     -    2s
H    0     0                    19408.000000 11514.7770  40.7%     -    2s
     0     0 11587.8112    0  250 19408.0000 11587.8112  40.3%     -    2s
     0     0 11601.9170    0  254 19408.0000 11601.9170  40.2%     -    2s
     0     0 11605.2039    0  260 19408.0000 11605.2039  40.2%     -    2s
     0     0 11606.5689    0  268 19408.0000 11606.5689  40.2%     -    2s
     0     0 11606.7154    0  268 19408.0000 11606.7154  40.2%     -    2s
H    0     0                    19376.000000 11606.7154  40.1%     -    2s
H    0     0                    19328.000000 11606.7154  39.9%     -    2s
     0     0 11646.0293    0  291 19328.0000 11646.0293  39.7%     -    2s
H    0     0                    18720.000000 11646.0293  37.8%     -    2s
H    0     0                    15824.000000 11646.0293  26.4%     -    2s
H    0     0                    15792.000000 11646.0293  26.3%     -    2s
H    0     0                    15776.000000 11646.0293  26.2%     -    2s
     0     0 11668.7366    0  277 15776.0000 11668.7366  26.0%     -    2s
     0     0 11670.4537    0  290 15776.0000 11670.4537  26.0%     -    2s
     0     0 11670.9727    0  292 15776.0000 11670.9727  26.0%     -    2s
     0     0 11670.9998    0  294 15776.0000 11670.9998  26.0%     -    3s
     0     0 11712.5637    0  317 15776.0000 11712.5637  25.8%     -    3s
     0     0 11722.7108    0  321 15776.0000 11722.7108  25.7%     -    3s
     0     0 11723.3103    0  325 15776.0000 11723.3103  25.7%     -    3s
     0     0 11723.5164    0  333 15776.0000 11723.5164  25.7%     -    3s
H    0     0                    15648.000000 11723.5164  25.1%     -    3s
     0     0 11737.3008    0  330 15648.0000 11737.3008  25.0%     -    3s
H    0     0                    13248.000000 11737.3008  11.4%     -    3s
     0     0 11738.6746    0  356 13248.0000 11738.6746  11.4%     -    3s
     0     0 11738.8673    0  349 13248.0000 11738.8673  11.4%     -    3s
     0     0 11751.9061    0  371 13248.0000 11751.9061  11.3%     -    3s
     0     0 11755.6620    0  377 13248.0000 11755.6620  11.3%     -    3s
     0     0 11756.8569    0  386 13248.0000 11756.8569  11.3%     -    3s
     0     0 11757.0898    0  387 13248.0000 11757.0898  11.3%     -    3s
     0     0 11762.8794    0  394 13248.0000 11762.8794  11.2%     -    3s
H    0     0                    13184.000000 11762.8794  10.8%     -    3s
     0     0 11763.2371    0  396 13184.0000 11763.2371  10.8%     -    3s
     0     0 11765.9510    0  416 13184.0000 11765.9510  10.8%     -    3s
     0     0 11765.9510    0  415 13184.0000 11765.9510  10.8%     -    4s
     0     0 11766.1632    0  106 13184.0000 11766.1632  10.8%     -    4s
H    0     0                    13152.000000 11766.1632  10.5%     -    4s
H    0     0                    13088.000000 11766.1632  10.1%     -    4s
H    0     0                    13056.000000 11766.1632  9.88%     -    4s
     0     0 11766.1632    0  237 13056.0000 11766.1632  9.88%     -    4s
     0     0 11766.1632    0  293 13056.0000 11766.1632  9.88%     -    4s
     0     0 11766.1632    0  321 13056.0000 11766.1632  9.88%     -    4s
     0     0 11771.4109    0  335 13056.0000 11771.4109  9.84%     -    4s
     0     0 11773.9953    0  361 13056.0000 11773.9953  9.82%     -    5s
     0     0 11774.6545    0  359 13056.0000 11774.6545  9.81%     -    5s
     0     0 11774.9228    0  361 13056.0000 11774.9228  9.81%     -    5s
     0     0 11775.0823    0  361 13056.0000 11775.0823  9.81%     -    5s
     0     0 11775.1417    0  365 13056.0000 11775.1417  9.81%     -    5s
H    0     0                    13024.000000 11775.1417  9.59%     -    5s
     0     0 11802.4046    0  367 13024.0000 11802.4046  9.38%     -    5s
H    0     0                    13008.000000 11802.4046  9.27%     -    5s
     0     0 11804.0367    0  371 13008.0000 11804.0367  9.26%     -    5s
     0     0 11804.2810    0  378 13008.0000 11804.2810  9.25%     -    5s
     0     0 11809.7271    0  375 13008.0000 11809.7271  9.21%     -    5s
     0     0 11811.4959    0  376 13008.0000 11811.4959  9.20%     -    5s
     0     0 11811.5647    0  378 13008.0000 11811.5647  9.20%     -    5s
H    0     0                    12832.000000 11811.5647  7.95%     -    5s
     0     0 11818.2564    0  384 12832.0000 11818.2564  7.90%     -    5s
H    0     0                    12816.000000 11818.2564  7.79%     -    5s
H    0     0                    12752.000000 11818.2564  7.32%     -    5s
     0     0 11819.6979    0  406 12752.0000 11819.6979  7.31%     -    5s
     0     0 11820.0577    0  407 12752.0000 11820.0577  7.31%     -    5s
     0     0 11825.2160    0  421 12752.0000 11825.2160  7.27%     -    5s
     0     0 11825.7202    0  431 12752.0000 11825.7202  7.26%     -    5s
     0     0 11828.6970    0  425 12752.0000 11828.6970  7.24%     -    5s
     0     0 11828.6970    0  422 12752.0000 11828.6970  7.24%     -    5s
     0     2 11828.9033    0  421 12752.0000 11828.9033  7.24%     -    6s
H   44    48                    12608.000000 11886.9449  5.72%   996    7s
H   46    48                    12368.000000 11886.9449  3.89%  1006    7s
H   67    74                    12352.000000 11886.9449  3.77%  1025    8s
   240   177 11953.3054    7  236 12352.0000 11906.2875  3.61%   616   10s
*  602   308              23    12304.000000 11920.8968  3.11%   407   11s
*  644   315              14    12288.000000 11920.8968  2.99%   397   12s
H  906   393                    12272.000000 11920.8968  2.86%   408   13s
  1196   431 12145.4742   11  217 12272.0000 11976.2078  2.41%   377   15s
H 1660   437                    12160.000000 12009.6258  1.24%   357   17s
* 1888   405              18    12144.000000 12024.6541  0.98%   347   18s
  2319   223 12120.2086   12  152 12144.0000 12077.3328  0.55%   336   20s

Cutting planes:
  Gomory: 2
  Cover: 38
  Clique: 80
  MIR: 185
  StrongCG: 112
  GUB cover: 68
  Inf proof: 3
  Zero half: 7
  Mod-K: 4
  RLT: 7

Explored 2681 nodes (851140 simplex iterations) in 20.31 seconds (58.34 work units)
Thread count was 8 (of 8 available processors)

Solution count 10: 12144 12160 12272 ... 12816

Optimal solution found (tolerance 1.00e-04)
Best objective 1.214400000000e+04, best bound 1.214400000000e+04, gap 0.0000%

Gurobi 9.5.2 (mac64[arm]) logging started Mon Apr 24 16:52:46 2023

Set parameter LogFile to value "Java/output/iterative_model/scenario_seed_3_nJob_40_machineCount_1/mip_increment_1/log.txt"
Gurobi Optimizer version 9.5.2 build v9.5.2rc0 (mac64[arm])
Thread count: 8 physical cores, 8 logical processors, using up to 8 threads
Optimize a model with 2225 rows, 9365 columns and 112304 nonzeros
Model fingerprint: 0x8e3d6ea1
Variable types: 0 continuous, 9365 integer (9365 binary)
Coefficient statistics:
  Matrix range     [1e+00, 4e+02]
  Objective range  [3e+02, 2e+06]
  Bounds range     [1e+00, 1e+00]
  RHS range        [1e+00, 1e+00]
Found heuristic solution: objective 6665376.0000
Presolve removed 550 rows and 596 columns
Presolve time: 0.11s
Presolved: 1675 rows, 8769 columns, 103223 nonzeros
Variable types: 0 continuous, 8769 integer (8763 binary)
Found heuristic solution: objective 5175736.0000

Root relaxation: objective 6.460802e+03, 1240 iterations, 0.04 seconds (0.08 work units)

    Nodes    |    Current Node    |     Objective Bounds      |     Work
 Expl Unexpl |  Obj  Depth IntInf | Incumbent    BestBd   Gap | It/Node Time

     0     0 6460.80224    0   44 5175736.00 6460.80224   100%     -    0s
H    0     0                    1565676.0000 6460.80224   100%     -    0s
H    0     0                    1289764.0000 6460.80224  99.5%     -    0s
H    0     0                    972980.00000 6460.80224  99.3%     -    0s
H    0     0                    6744.0000000 6466.24097  4.12%     -    0s
     0     0 6466.24097    0   66 6744.00000 6466.24097  4.12%     -    0s
H    0     0                    6656.0000000 6466.24097  2.85%     -    0s
     0     0 6471.26402    0   68 6656.00000 6471.26402  2.78%     -    0s
     0     0 6471.26402    0   42 6656.00000 6471.26402  2.78%     -    0s
H    0     0                    6584.0000000 6471.26402  1.71%     -    0s
     0     0 6472.85745    0   84 6584.00000 6472.85745  1.69%     -    0s
     0     0 6473.50776    0   82 6584.00000 6473.50776  1.68%     -    0s
     0     0 6473.50776    0   82 6584.00000 6473.50776  1.68%     -    0s
     0     0 6477.42878    0  137 6584.00000 6477.42878  1.62%     -    0s
     0     0 6477.93961    0  136 6584.00000 6477.93961  1.61%     -    0s
     0     0 6477.97581    0  139 6584.00000 6477.97581  1.61%     -    0s
     0     0 6477.98424    0  142 6584.00000 6477.98424  1.61%     -    0s
     0     0 6477.98782    0  141 6584.00000 6477.98782  1.61%     -    0s
     0     0 6485.77499    0  148 6584.00000 6485.77499  1.49%     -    0s
     0     0 6487.25506    0  153 6584.00000 6487.25506  1.47%     -    0s
     0     0 6488.80143    0  163 6584.00000 6488.80143  1.45%     -    0s
     0     0 6489.16117    0  171 6584.00000 6489.16117  1.44%     -    0s
     0     0 6489.20137    0  163 6584.00000 6489.20137  1.44%     -    0s
     0     0 6489.20473    0  166 6584.00000 6489.20473  1.44%     -    0s
     0     0 6492.39040    0  173 6584.00000 6492.39040  1.39%     -    0s
     0     0 6494.99401    0  177 6584.00000 6494.99401  1.35%     -    0s
     0     0 6495.96673    0  168 6584.00000 6495.96673  1.34%     -    0s
     0     0 6496.64506    0  184 6584.00000 6496.64506  1.33%     -    0s
     0     0 6496.68905    0  190 6584.00000 6496.68905  1.33%     -    0s
     0     0 6496.69300    0  183 6584.00000 6496.69300  1.33%     -    0s
H    0     0                    6580.0000000 6496.69300  1.27%     -    0s
     0     0 6497.72276    0  205 6580.00000 6497.72276  1.25%     -    0s
     0     0 6498.11699    0  208 6580.00000 6498.11699  1.24%     -    1s
     0     0 6498.29226    0  205 6580.00000 6498.29226  1.24%     -    1s
     0     0 6498.30039    0  210 6580.00000 6498.30039  1.24%     -    1s
     0     0 6499.19492    0  183 6580.00000 6499.19492  1.23%     -    1s
     0     0 6499.38114    0  188 6580.00000 6499.38114  1.23%     -    1s
     0     0 6499.47631    0  199 6580.00000 6499.47631  1.22%     -    1s
     0     0 6499.48887    0  202 6580.00000 6499.48887  1.22%     -    1s
     0     0 6500.30578    0  198 6580.00000 6500.30578  1.21%     -    1s
     0     0 6500.52957    0  194 6580.00000 6500.52957  1.21%     -    1s
     0     0 6500.56324    0  193 6580.00000 6500.56324  1.21%     -    1s
     0     0 6500.57040    0  197 6580.00000 6500.57040  1.21%     -    1s
     0     0 6501.66970    0  158 6580.00000 6501.66970  1.19%     -    1s
     0     0 6502.22120    0  201 6580.00000 6502.22120  1.18%     -    1s
     0     0 6502.26543    0  188 6580.00000 6502.26543  1.18%     -    1s
     0     0 6502.28470    0  196 6580.00000 6502.28470  1.18%     -    1s
     0     0 6502.62266    0  179 6580.00000 6502.62266  1.18%     -    1s
     0     0 6502.63976    0  155 6580.00000 6502.63976  1.18%     -    1s
     0     0 6503.25274    0  137 6580.00000 6503.25274  1.17%     -    1s
     0     0 6503.46333    0  180 6580.00000 6503.46333  1.16%     -    1s
     0     0 6503.61848    0  178 6580.00000 6503.61848  1.16%     -    1s
     0     0 6503.73756    0  204 6580.00000 6503.73756  1.16%     -    1s
     0     0 6503.75117    0  206 6580.00000 6503.75117  1.16%     -    1s
     0     0 6503.85986    0  214 6580.00000 6503.85986  1.16%     -    1s
     0     0 6503.90237    0  210 6580.00000 6503.90237  1.16%     -    1s
     0     0 6503.93202    0  211 6580.00000 6503.93202  1.16%     -    1s
     0     0 6503.94777    0  206 6580.00000 6503.94777  1.16%     -    1s
     0     0 6503.97852    0  211 6580.00000 6503.97852  1.16%     -    1s
     0     0 6503.97852    0  195 6580.00000 6503.97852  1.16%     -    1s
H    0     0                    6576.0000000 6503.98612  1.10%     -    1s
     0     0 6503.98612    0   44 6576.00000 6503.98612  1.10%     -    1s
     0     0 6503.98612    0  125 6576.00000 6503.98612  1.10%     -    1s
     0     0 6503.98612    0  173 6576.00000 6503.98612  1.10%     -    1s
     0     0 6503.98612    0  183 6576.00000 6503.98612  1.10%     -    1s
     0     0 6504.00156    0  196 6576.00000 6504.00156  1.09%     -    1s
     0     0 6504.16356    0  182 6576.00000 6504.16356  1.09%     -    1s
     0     0 6504.20322    0  154 6576.00000 6504.20322  1.09%     -    1s
     0     0 6504.20548    0  158 6576.00000 6504.20548  1.09%     -    1s
     0     0 6504.34105    0  179 6576.00000 6504.34105  1.09%     -    1s
     0     0 6504.39014    0  178 6576.00000 6504.39014  1.09%     -    1s
     0     0 6504.40953    0  196 6576.00000 6504.40953  1.09%     -    1s
     0     0 6505.62290    0  196 6576.00000 6505.62290  1.07%     -    1s
     0     0 6505.74463    0  206 6576.00000 6505.74463  1.07%     -    1s
     0     0 6505.75786    0  206 6576.00000 6505.75786  1.07%     -    1s
     0     0 6506.10756    0  222 6576.00000 6506.10756  1.06%     -    1s
     0     0 6506.15524    0  225 6576.00000 6506.15524  1.06%     -    1s
     0     0 6506.16352    0  219 6576.00000 6506.16352  1.06%     -    1s
H    0     0                    6572.0000000 6506.16352  1.00%     -    1s
     0     0 6506.61716    0  219 6572.00000 6506.61716  0.99%     -    1s
     0     0 6506.84264    0  211 6572.00000 6506.84264  0.99%     -    2s
     0     0 6506.93390    0  210 6572.00000 6506.93390  0.99%     -    2s
     0     0 6506.93776    0  209 6572.00000 6506.93776  0.99%     -    2s
     0     0 6508.05520    0  183 6572.00000 6508.05520  0.97%     -    2s
     0     0 6508.27082    0  203 6572.00000 6508.27082  0.97%     -    2s
     0     0 6508.30420    0  209 6572.00000 6508.30420  0.97%     -    2s
     0     0 6508.54252    0  209 6572.00000 6508.54252  0.97%     -    2s
     0     0 6508.56566    0  211 6572.00000 6508.56566  0.97%     -    2s
     0     0 6508.99377    0  216 6572.00000 6508.99377  0.96%     -    2s
     0     0 6509.05938    0  209 6572.00000 6509.05938  0.96%     -    2s
     0     0 6509.09451    0  208 6572.00000 6509.09451  0.96%     -    2s
     0     0 6509.27685    0  224 6572.00000 6509.27685  0.95%     -    2s
     0     0 6509.27685    0  212 6572.00000 6509.27685  0.95%     -    2s
     0     2 6509.30470    0  211 6572.00000 6509.30470  0.95%     -    2s
H  203   127                    6556.0000000 6520.58363  0.54%   198    2s
*  310   142               9    6552.0000000 6520.58363  0.48%   175    3s

Cutting planes:
  Lift-and-project: 1
  Cover: 14
  Clique: 58
  MIR: 109
  StrongCG: 46
  GUB cover: 31
  Zero half: 8
  Mod-K: 2
  RLT: 10

Explored 1005 nodes (122506 simplex iterations) in 3.58 seconds (7.21 work units)
Thread count was 8 (of 8 available processors)

Solution count 10: 6552 6556 6572 ... 1.28976e+06

Optimal solution found (tolerance 1.00e-04)
Best objective 6.552000000000e+03, best bound 6.552000000000e+03, gap 0.0000%

Gurobi 9.5.2 (mac64[arm]) logging started Mon Apr 24 16:52:50 2023

Set parameter LogFile to value "Java/output/iterative_model/scenario_seed_3_nJob_40_machineCount_1/mip_increment_1/log.txt"
Gurobi Optimizer version 9.5.2 build v9.5.2rc0 (mac64[arm])
Thread count: 8 physical cores, 8 logical processors, using up to 8 threads
Optimize a model with 2246 rows, 9430 columns and 116216 nonzeros
Model fingerprint: 0xed33358d
Variable types: 0 continuous, 9430 integer (9430 binary)
Coefficient statistics:
  Matrix range     [1e+00, 4e+02]
  Objective range  [1e+02, 2e+05]
  Bounds range     [1e+00, 1e+00]
  RHS range        [1e+00, 1e+00]
Presolve removed 954 rows and 1192 columns
Presolve time: 0.13s
Presolved: 1292 rows, 8238 columns, 99212 nonzeros
Variable types: 0 continuous, 8238 integer (8230 binary)

Root relaxation: objective 4.134492e+03, 4874 iterations, 0.23 seconds (0.50 work units)

    Nodes    |    Current Node    |     Objective Bounds      |     Work
 Expl Unexpl |  Obj  Depth IntInf | Incumbent    BestBd   Gap | It/Node Time

     0     0 4134.49176    0  131          - 4134.49176      -     -    0s
H    0     0                    251702.00000 4134.49176  98.4%     -    0s
H    0     0                    246668.00000 4134.49176  98.3%     -    0s
H    0     0                    246606.00000 4134.49176  98.3%     -    0s
     0     0 4150.50301    0  153 246606.000 4150.50301  98.3%     -    0s
H    0     0                    36905.000000 4150.50301  88.8%     -    0s
     0     0 4150.50301    0  152 36905.0000 4150.50301  88.8%     -    0s
     0     0 4159.70563    0  182 36905.0000 4159.70563  88.7%     -    0s
H    0     0                    35383.000000 4159.70563  88.2%     -    0s
H    0     0                    35374.000000 4159.70563  88.2%     -    0s
     0     0 4159.88379    0  171 35374.0000 4159.88379  88.2%     -    0s
     0     0 4159.88379    0  169 35374.0000 4159.88379  88.2%     -    1s
     0     0 4163.12777    0  186 35374.0000 4163.12777  88.2%     -    1s
     0     0 4163.12777    0  129 35374.0000 4163.12777  88.2%     -    1s
H    0     0                    34639.000000 4163.12777  88.0%     -    1s
H    0     0                    32103.000000 4163.12777  87.0%     -    1s
     0     0 4163.12777    0  179 32103.0000 4163.12777  87.0%     -    1s
H    0     0                    29379.000000 4163.12777  85.8%     -    1s
H    0     0                    14178.000000 4163.12777  70.6%     -    1s
     0     0 4163.12777    0  140 14178.0000 4163.12777  70.6%     -    2s
     0     0 4163.16931    0  206 14178.0000 4163.16931  70.6%     -    2s
     0     0 4163.17235    0  203 14178.0000 4163.17235  70.6%     -    2s
H    0     0                    4226.0000000 4163.17235  1.49%     -    2s
     0     0 4167.42827    0  154 4226.00000 4167.42827  1.39%     -    2s
     0     0 4167.42827    0  113 4226.00000 4167.42827  1.39%     -    2s
H    0     0                    4223.0000000 4167.42827  1.32%     -    2s
H    0     0                    4217.0000000 4167.42827  1.18%     -    2s
H    0     0                    4212.0000000 4167.42827  1.06%     -    2s
     0     0 4167.82570    0  145 4212.00000 4167.82570  1.05%     -    2s
     0     0 4169.97879    0  147 4212.00000 4169.97879  1.00%     -    2s
H    0     0                    4211.0000000 4169.97879  0.97%     -    2s
     0     0 4170.94298    0  152 4211.00000 4170.94298  0.95%     -    2s
     0     0 4170.97732    0  156 4211.00000 4170.97732  0.95%     -    2s
     0     0 4171.38875    0  144 4211.00000 4171.38875  0.94%     -    2s
     0     0 4171.47068    0  147 4211.00000 4171.47068  0.94%     -    2s
     0     0 4171.53628    0  167 4211.00000 4171.53628  0.94%     -    2s
     0     0 4171.53628    0  168 4211.00000 4171.53628  0.94%     -    2s
     0     0 4173.50735    0  173 4211.00000 4173.50735  0.89%     -    2s
     0     0 4174.05378    0  179 4211.00000 4174.05378  0.88%     -    2s
     0     0 4174.10226    0  177 4211.00000 4174.10226  0.88%     -    2s
     0     0 4174.10226    0  179 4211.00000 4174.10226  0.88%     -    2s
H    0     0                    4190.0000000 4174.98105  0.36%     -    2s
     0     0 4176.55483    0  205 4190.00000 4176.55483  0.32%     -    2s
     0     0 4177.18724    0  211 4190.00000 4177.18724  0.31%     -    3s
     0     0 4177.24580    0  219 4190.00000 4177.24580  0.30%     -    3s
     0     0 4177.25455    0  220 4190.00000 4177.25455  0.30%     -    3s
     0     0 4177.25483    0  225 4190.00000 4177.25483  0.30%     -    3s
H    0     0                    4184.0000000 4177.25483  0.16%     -    3s
     0     0 4179.42858    0  224 4184.00000 4179.42858  0.11%     -    3s
     0     0 4179.42858    0  111 4184.00000 4179.42858  0.11%     -    3s
     0     0 4179.42858    0  152 4184.00000 4179.42858  0.11%     -    3s
     0     0 4179.42858    0  193 4184.00000 4179.42858  0.11%     -    3s
     0     0 4179.42858    0  176 4184.00000 4179.42858  0.11%     -    3s
     0     0 4179.76532    0  169 4184.00000 4179.76532  0.10%     -    3s
     0     0 4179.79696    0  179 4184.00000 4179.79696  0.10%     -    3s
     0     0 4179.81678    0  180 4184.00000 4179.81678  0.10%     -    3s
     0     0 4179.82130    0  201 4184.00000 4179.82130  0.10%     -    3s
     0     0 4179.82525    0  200 4184.00000 4179.82525  0.10%     -    3s
     0     0 4180.58394    0  200 4184.00000 4180.58394  0.08%     -    3s
H    0     0                    4183.0000000 4180.58394  0.06%     -    3s
     0     0 4180.58489    0  200 4183.00000 4180.58489  0.06%     -    3s
     0     0 4181.04618    0  211 4183.00000 4181.04618  0.05%     -    3s
     0     0 4181.21850    0  224 4183.00000 4181.21850  0.04%     -    3s
     0     0 4181.27910    0  219 4183.00000 4181.27910  0.04%     -    3s
     0     0 4181.28547    0  218 4183.00000 4181.28547  0.04%     -    3s
     0     0 4181.70928    0  219 4183.00000 4181.70928  0.03%     -    3s
     0     0 4181.70928    0   33 4183.00000 4181.70928  0.03%     -    3s
     0     0 4181.70928    0   47 4183.00000 4181.70928  0.03%     -    3s
H    0     0                    4182.0000000 4181.70928  0.01%     -    3s

Cutting planes:
  Gomory: 8
  Cover: 8
  Implied bound: 1
  Clique: 17
  MIR: 10
  StrongCG: 8
  GUB cover: 14
  Zero half: 6
  RLT: 5
  Relax-and-lift: 1

Explored 1 nodes (31578 simplex iterations) in 3.71 seconds (6.67 work units)
Thread count was 8 (of 8 available processors)

Solution count 10: 4182 4183 4184 ... 4226

Optimal solution found (tolerance 1.00e-04)
Best objective 4.182000000000e+03, best bound 4.182000000000e+03, gap 0.0000%

Gurobi 9.5.2 (mac64[arm]) logging started Mon Apr 24 16:52:54 2023

Set parameter LogFile to value "Java/output/iterative_model/scenario_seed_3_nJob_40_machineCount_1/mip_increment_1/log.txt"
Gurobi Optimizer version 9.5.2 build v9.5.2rc0 (mac64[arm])
Thread count: 8 physical cores, 8 logical processors, using up to 8 threads
Optimize a model with 2358 rows, 40906 columns and 503357 nonzeros
Model fingerprint: 0x21933866
Variable types: 0 continuous, 40906 integer (40906 binary)
Coefficient statistics:
  Matrix range     [1e+00, 4e+02]
  Objective range  [1e+00, 1e+07]
  Bounds range     [1e+00, 1e+00]
  RHS range        [1e+00, 1e+00]

Warning: Completing partial solution with 40793 unfixed non-continuous variables out of 40906
User MIP start produced solution with objective 22318 (0.03s)
Loaded user MIP start with objective 22318

Presolve removed 42 rows and 3329 columns
Presolve time: 0.78s
Presolved: 2316 rows, 37577 columns, 450541 nonzeros
Variable types: 0 continuous, 37577 integer (37555 binary)

Root simplex log...

Iteration    Objective       Primal Inf.    Dual Inf.      Time
   32971    1.8976777e+04   2.672664e+04   0.000000e+00      5s
   37589    1.9080265e+04   0.000000e+00   0.000000e+00      6s

Root relaxation: objective 1.908027e+04, 37589 iterations, 5.01 seconds (12.19 work units)

    Nodes    |    Current Node    |     Objective Bounds      |     Work
 Expl Unexpl |  Obj  Depth IntInf | Incumbent    BestBd   Gap | It/Node Time

     0     0 19080.2654    0  311 22318.0000 19080.2654  14.5%     -    6s
H    0     0                    21653.000000 19080.2654  11.9%     -    6s
H    0     0                    21091.000000 19080.2654  9.53%     -    6s
     0     0 19203.2020    0  501 21091.0000 19203.2020  8.95%     -    8s
     0     0 19206.5522    0  387 21091.0000 19206.5522  8.93%     -   12s
H    0     0                    21013.000000 19206.5522  8.60%     -   12s
H    0     0                    21004.000000 19218.4630  8.50%     -   13s
     0     0 19310.7843    0  581 21004.0000 19310.7843  8.06%     -   13s
     0     0 19315.7775    0  607 21004.0000 19315.7775  8.04%     -   14s
     0     0 19316.0063    0  574 21004.0000 19316.0063  8.04%     -   14s
     0     0 19316.0746    0  571 21004.0000 19316.0746  8.04%     -   14s
     0     0 19316.0746    0  571 21004.0000 19316.0746  8.04%     -   14s
     0     0 19371.3013    0  620 21004.0000 19371.3013  7.77%     -   15s
     0     0 19381.3416    0  655 21004.0000 19381.3416  7.73%     -   16s
     0     0 19385.2141    0  690 21004.0000 19385.2141  7.71%     -   17s
     0     0 19385.5248    0  706 21004.0000 19385.5248  7.71%     -   17s
     0     0 19385.5331    0  707 21004.0000 19385.5331  7.71%     -   17s
     0     0 19442.0129    0  692 21004.0000 19442.0129  7.44%     -   19s
H    0     0                    20992.000000 19442.0129  7.38%     -   20s
     0     0 19467.9495    0  728 20992.0000 19467.9495  7.26%     -   20s
H    0     0                    20976.000000 19467.9495  7.19%     -   21s
     0     0 19473.3307    0  767 20976.0000 19473.3307  7.16%     -   21s
     0     0 19474.1729    0  776 20976.0000 19474.1729  7.16%     -   21s
     0     0 19474.2057    0  773 20976.0000 19474.2057  7.16%     -   21s
     0     0 19552.0322    0  849 20976.0000 19552.0322  6.79%     -   25s
H    0     0                    20972.000000 19552.0322  6.77%     -   25s
     0     0 19566.6426    0  866 20972.0000 19566.6426  6.70%     -   26s
     0     0 19574.7324    0  906 20972.0000 19574.7324  6.66%     -   27s
     0     0 19575.4068    0  906 20972.0000 19575.4068  6.66%     -   27s
     0     0 19576.1662    0  940 20972.0000 19576.1662  6.66%     -   27s
     0     0 19576.2368    0  935 20972.0000 19576.2368  6.66%     -   27s
     0     0 19593.4096    0  971 20972.0000 19593.4096  6.57%     -   29s
H    0     0                    20960.000000 19593.4096  6.52%     -   29s
H    0     0                    20922.000000 19593.4096  6.35%     -   31s
     0     0 19607.6377    0  962 20922.0000 19607.6377  6.28%     -   31s
H    0     0                    20848.000000 19607.6377  5.95%     -   32s
     0     0 19611.1891    0  997 20848.0000 19611.1891  5.93%     -   32s
     0     0 19612.3758    0 1012 20848.0000 19612.3758  5.93%     -   32s
     0     0 19613.2164    0 1010 20848.0000 19613.2164  5.92%     -   32s
     0     0 19613.3283    0 1035 20848.0000 19613.3283  5.92%     -   33s
H    0     0                    20832.000000 19613.3283  5.85%     -   35s
     0     0 19632.4036    0  990 20832.0000 19632.4036  5.76%     -   35s
H    0     0                    20823.000000 19632.4036  5.72%     -   35s
     0     0 19642.0960    0 1046 20823.0000 19642.0960  5.67%     -   36s
     0     0 19644.2715    0 1043 20823.0000 19644.2715  5.66%     -   37s
     0     0 19644.7057    0 1044 20823.0000 19644.7057  5.66%     -   37s
     0     0 19644.9001    0 1044 20823.0000 19644.9001  5.66%     -   38s
     0     0 19661.0217    0 1058 20823.0000 19661.0217  5.58%     -   40s
H    0     0                    20811.000000 19661.0217  5.53%     -   41s
     0     0 19666.6651    0 1106 20811.0000 19666.6651  5.50%     -   42s
     0     0 19668.6349    0 1087 20811.0000 19668.6349  5.49%     -   43s
     0     0 19669.0659    0 1092 20811.0000 19669.0659  5.49%     -   43s
     0     0 19669.2470    0 1103 20811.0000 19669.2470  5.49%     -   43s
     0     0 19682.5402    0 1090 20811.0000 19682.5402  5.42%     -   45s
     0     0 19686.5709    0 1106 20811.0000 19686.5709  5.40%     -   47s
     0     0 19689.5443    0 1109 20811.0000 19689.5443  5.39%     -   47s
     0     0 19689.8999    0 1098 20811.0000 19689.8999  5.39%     -   48s
     0     0 19690.5935    0 1093 20811.0000 19690.5935  5.38%     -   48s
     0     0 19690.6922    0 1107 20811.0000 19690.6922  5.38%     -   49s
H    0     0                    20763.000000 19690.6922  5.16%     -   51s
     0     0 19700.5054    0 1105 20763.0000 19700.5054  5.12%     -   51s
     0     0 19707.3986    0 1128 20763.0000 19707.3986  5.08%     -   53s
     0     0 19708.5483    0 1145 20763.0000 19708.5483  5.08%     -   54s
     0     0 19709.0096    0 1157 20763.0000 19709.0096  5.08%     -   54s
     0     0 19709.1636    0 1159 20763.0000 19709.1636  5.08%     -   54s
     0     0 19718.5933    0 1151 20763.0000 19718.5933  5.03%     -   56s
     0     0 19722.9031    0 1138 20763.0000 19722.9031  5.01%     -   57s
     0     0 19723.7731    0 1165 20763.0000 19723.7731  5.01%     -   58s
     0     0 19724.0265    0 1203 20763.0000 19724.0265  5.00%     -   58s
     0     0 19732.3181    0 1232 20763.0000 19732.3181  4.96%     -   60s
H    0     0                    20561.000000 19732.3181  4.03%     -   63s
     0     0 19734.6229    0 1238 20561.0000 19734.6229  4.02%     -   64s
     0     0 19735.8547    0 1229 20561.0000 19735.8547  4.01%     -   65s
     0     0 19736.0688    0 1235 20561.0000 19736.0688  4.01%     -   65s
     0     0 19741.6358    0 1232 20561.0000 19741.6358  3.99%     -   67s
H    0     0                    20549.000000 19741.6358  3.93%     -   67s
     0     0 19742.8350    0 1252 20549.0000 19742.8350  3.92%     -   68s
     0     0 19743.2631    0 1260 20549.0000 19743.2631  3.92%     -   68s
     0     0 19747.7199    0 1223 20549.0000 19747.7199  3.90%     -   70s
     0     0 19749.8661    0 1291 20549.0000 19749.8661  3.89%     -   73s
     0     0 19750.8546    0 1282 20549.0000 19750.8546  3.88%     -   74s
     0     0 19751.1880    0 1296 20549.0000 19751.1880  3.88%     -   74s
     0     0 19758.5156    0 1270 20549.0000 19758.5156  3.85%     -   76s
H    0     0                    20543.000000 19758.5156  3.82%     -   76s
     0     0 19761.0611    0 1266 20543.0000 19761.0611  3.81%     -   78s
     0     0 19762.2295    0 1301 20543.0000 19762.2295  3.80%     -   79s
     0     0 19762.4861    0 1293 20543.0000 19762.4861  3.80%     -   79s
     0     0 19768.1259    0 1298 20543.0000 19768.1259  3.77%     -   81s
     0     0 19770.0977    0 1295 20543.0000 19770.0977  3.76%     -   85s
     0     0 19770.7739    0 1298 20543.0000 19770.7739  3.76%     -   86s
     0     0 19770.9423    0 1300 20543.0000 19770.9423  3.76%     -   86s
     0     0 19773.3559    0 1301 20543.0000 19773.3559  3.75%     -   87s
     0     0 19774.4740    0 1306 20543.0000 19774.4740  3.74%     -   88s
     0     0 19775.0135    0 1293 20543.0000 19775.0135  3.74%     -   89s
     0     0 19775.1587    0 1326 20543.0000 19775.1587  3.74%     -   89s
     0     0 19777.1187    0 1307 20543.0000 19777.1187  3.73%     -   91s
     0     0 19777.1187    0 1279 20543.0000 19777.1187  3.73%     -   91s
     0     2 19777.1265    0 1276 20543.0000 19777.1265  3.73%     -  100s
     3     8 19803.2700    2 1182 20543.0000 19781.2588  3.71%  3801  106s
     7    16 19817.6431    3 1191 20543.0000 19803.2700  3.60%  6946  128s
    15    22 20027.7717    4 1151 20543.0000 19814.9782  3.54% 17263  136s
    23    28 19831.8225    4 1239 20543.0000 19814.9782  3.54% 14746  150s
H   31    34                    20537.000000 19831.0381  3.44% 14332  158s
H   38    34                    20529.000000 19831.0381  3.40% 13504  158s
    39    40 20004.8903    5 1045 20529.0000 19831.0381  3.40% 13919  180s
    47    49 19915.2217    6 1195 20529.0000 19847.1239  3.32% 13905  187s
    56    56 19872.6490    6 1171 20529.0000 19847.1239  3.32% 13087  200s
    65    64 19903.2341    7 1130 20529.0000 19848.4767  3.31% 12527  209s
H   72    64                    20526.000000 19848.4767  3.30% 11958  209s
H   72    64                    20525.000000 19848.4767  3.30% 11958  209s
    77    70 19925.4700    7 1091 20525.0000 19848.4767  3.30% 11606  215s
    87    81 19952.8523    8 1118 20525.0000 19858.4497  3.25% 11110  223s
    98    90 19920.4753    8 1035 20525.0000 19864.9931  3.22% 10666  241s
   111    95 20119.2424    9 1007 20525.0000 19864.9931  3.22% 10568  247s
H  115    95                    20523.000000 19864.9931  3.21% 10299  247s
H  116    95                    20512.000000 19864.9931  3.15% 10271  247s
   122   104 19985.0362   10 1040 20512.0000 19864.9931  3.15% 10093  256s
   133   110 19986.1784   10  916 20512.0000 19864.9931  3.15% 10316  265s
   143   119 20023.4792   11  924 20512.0000 19864.9931  3.15% 10487  274s
H  154   132                    20511.000000 19864.9931  3.15% 10336  282s
H  157   132                    20505.000000 19864.9931  3.12% 10338  282s
   167   147 20187.8440   13  855 20505.0000 19864.9931  3.12% 10147  333s
   182   160 20167.0096   14  900 20505.0000 19864.9931  3.12% 11062  344s
H  205   168                    20501.000000 19864.9931  3.10% 10500  352s
H  213   168                    20497.000000 19864.9931  3.08% 10328  352s
   225   177 20431.6125   17  796 20497.0000 19864.9931  3.08% 10096  362s
   244   196 infeasible   18      20497.0000 19864.9931  3.08%  9914  373s
H  250   196                    20493.000000 19864.9931  3.06%  9813  373s
   271   199 20017.9427    7 1219 20493.0000 19864.9931  3.06%  9471  385s
H  281   199                    20490.000000 19864.9931  3.05%  9235  385s
H  290   199                    20481.000000 19864.9931  3.01%  9181  385s
   294   201 20202.4264    7 1224 20481.0000 19864.9931  3.01%  9289  404s
H  295   201                    20480.000000 19864.9931  3.00%  9258  404s
   311   208 20162.6342    8 1191 20480.0000 19864.9931  3.00%  9296  413s
   340   217 20442.5903    8 1168 20480.0000 19864.9931  3.00%  9042  426s
H  341   217                    20479.000000 19864.9931  3.00%  9015  426s
   363   228 20196.1336    9 1203 20479.0000 19864.9931  3.00%  8826  441s
   390   233 20300.2354   10 1166 20479.0000 19864.9931  3.00%  8825  452s
   415   259 20376.2234   11 1187 20479.0000 19864.9931  3.00%  8713  462s
   449   272     cutoff   13      20479.0000 19864.9931  3.00%  8465  480s
   476   288 20328.2471   13 1105 20479.0000 19864.9931  3.00%  8482  496s
H  502   288                    20459.000000 19864.9931  2.90%  8329  496s
   504   302     cutoff   14      20459.0000 19864.9931  2.90%  8336  510s
H  505   302                    20449.000000 19864.9931  2.86%  8319  510s
   540   314     cutoff   15      20449.0000 19864.9931  2.86%  8208  526s
   570   333     cutoff   16      20449.0000 19881.6221  2.77%  8183  540s
   605   353 19920.6020    7 1163 20449.0000 19881.6221  2.77%  8025  557s
   641   371 20034.4299    9  912 20449.0000 19881.6221  2.77%  7952  571s

Cutting planes:
  Gomory: 5
  Cover: 66
  Clique: 450
  MIR: 545
  StrongCG: 295
  GUB cover: 281
  Inf proof: 1
  Zero half: 21
  RLT: 12

Explored 677 nodes (5576677 simplex iterations) in 571.03 seconds (1786.66 work units)
Thread count was 8 (of 8 available processors)

Solution count 10: 20449 20459 20479 ... 20505

Time limit reached
Best objective 2.044900000000e+04, best bound 1.988200000000e+04, gap 2.7728%
